c This is UnifRandomKSATGenerator
c uniform random 3-SAT generated instance with: 
c clause length: 3 
c number variables: 10 
c number clauses: 43 
c clause to variable ratio: 4.27 
c random number generator name: SHA1PRNG 
c random number generator provider: SUN 
c random number generator seed: 8980110567885032507 
p cnf 10 43
1 -2 5 0
5 -7 -8 0
9 2 5 0
9 -5 -7 0
4 5 -7 0
-3 -6 -8 0
-2 -6 -8 0
-2 4 -8 0
-2 6 -8 0
-1 8 10 0
1 4 6 0
-2 -4 5 0
-9 6 -8 0
2 10 6 0
-2 10 -4 0
-2 3 4 0
9 -2 7 0
1 -3 5 0
1 10 -5 0
9 3 5 0
-9 -5 -6 0
-10 -3 -8 0
-1 -2 -3 0
2 -4 -6 0
-2 5 -7 0
9 2 -7 0
-3 10 6 0
-10 4 -8 0
1 10 6 0
-9 8 -6 0
1 9 2 0
1 2 10 0
-1 -3 -8 0
-9 -2 -5 0
1 -3 -8 0
-1 -5 -7 0
8 5 -6 0
1 6 -8 0
9 -3 7 0
3 -5 7 0
-10 2 -7 0
10 3 -7 0
1 9 -8 0
